\ Equation counts
\     Total        E        G        L        N        X        C        B
\	273	273	0	0
\
\ Variable counts
\                  x        b        i      s1s      s2s       sc       si
\     Total     cont   binary  integer     sos1     sos2    scont     sint
\	60	60

\ Nonzero counts
\     Total    const       NL      DLL
\
\
Minimize
 obj: [ - 5.5 x_1 * x_6 + 17.0 x_1 * x_17 + 3.0 x_1 * x_21 - 21.5 x_1 * x_25 + 21.5 x_1 * x_33 + 13.0 x_1 * x_51 + 23.5 x_1 * x_52 + 7.5 x_1 * x_55 + 8.5 x_1 * x_60 + 10.5 x_2 * x_12 - 20.5 x_2 * x_14 + 20.5 x_2 * x_20 + 13.0 x_2 * x_29 + 10.0 x_2 * x_31 + 4.0 x_2 * x_35 - 22.0 x_2 * x_42 + 16.0 x_2 * x_54 - 24.0 x_2 * x_56 + 22.5 x_2 * x_60 + 21.0 x_3 * x_7 - 22.5 x_3 * x_8 + 19.5 x_3 * x_9 + 18.5 x_3 * x_15 + 4.0 x_3 * x_18 + 18.0 x_3 * x_21 + 11.0 x_3 * x_22 + 12.5 x_3 * x_27 + 12.5 x_3 * x_31 - 22.0 x_3 * x_32 + 22.5 x_3 * x_37 + 17.0 x_3 * x_39 + 17.5 x_3 * x_42 + 14.5 x_3 * x_45 + 14.5 x_3 * x_46 + 20.0 x_3 * x_48 + 16.5 x_3 * x_51 + 6.5 x_3 * x_53 - 1.5 x_3 * x_58 + 23.0 x_4 * x_9 + 17.0 x_4 * x_12 - 22.5 x_4 * x_13 - 21.5 x_4 * x_22 + 15.5 x_4 * x_26 - 4.0 x_4 * x_35 - 17.0 x_4 * x_41 + 3.5 x_4 * x_58 - 19.0 x_4 * x_59 + 0.5 x_5 * x_7 + 9.5 x_5 * x_11 + 18.5 x_5 * x_14 + 15.5 x_5 * x_15 + 20.5 x_5 * x_20 + 13.0 x_5 * x_23 - 9.0 x_5 * x_25 + 24.5 x_5 * x_29 + 13.0 x_5 * x_32 + 23.0 x_5 * x_36 + 14.5 x_5 * x_50 - 5.5 x_6 * x_1 - 17.5 x_6 * x_17 - 18.5 x_6 * x_25 - 4.5 x_6 * x_30 - 23.5 x_6 * x_31 + 23.5 x_6 * x_32 + 17.0 x_6 * x_35 + 23.0 x_6 * x_40 - 20.0 x_6 * x_46 + 21.0 x_7 * x_3 + 0.5 x_7 * x_5 + 8.5 x_7 * x_9 + 10.0 x_7 * x_20 - 7.5 x_7 * x_33 + 2.5 x_7 * x_36 - 2.5 x_7 * x_37 - 23.0 x_7 * x_47 + 22.5 x_7 * x_55 + 18.5 x_7 * x_60 - 22.5 x_8 * x_3 - 7.0 x_8 * x_8 + 9.0 x_8 * x_16 - 10.0 x_8 * x_17 + 23.5 x_8 * x_26 + 17.5 x_8 * x_29 + 16.0 x_8 * x_34 + 13.0 x_8 * x_35 + 24.0 x_8 * x_42 + 17.0 x_8 * x_44 + 6.5 x_8 * x_47 + 19.5 x_9 * x_3 + 23.0 x_9 * x_4 + 8.5 x_9 * x_7 - 6.5 x_9 * x_10 + 3.0 x_9 * x_12 - 14.0 x_9 * x_26 - 9.0 x_9 * x_27 - 4.5 x_9 * x_34 + 10.5 x_9 * x_45 + 4.5 x_9 * x_50 + 19.5 x_9 * x_57 + 4.0 x_9 * x_59 - 6.5 x_10 * x_9 + 22.5 x_10 * x_16 + 6.0 x_10 * x_19 + 15.5 x_10 * x_27 - 2.5 x_10 * x_30 + 9.0 x_10 * x_40 + 22.5 x_10 * x_52 + 9.5 x_11 * x_5 - 19.0 x_11 * x_11 + 18.5 x_11 * x_15 + 11.0 x_11 * x_18 - 4.0 x_11 * x_20 + 0.5 x_11 * x_21 + 7.0 x_11 * x_41 - 4.5 x_11 * x_42 + 8.5 x_11 * x_46 + 19.0 x_11 * x_57 - 4.0 x_11 * x_59 + 21.5 x_11 * x_60 + 10.5 x_12 * x_2 + 17.0 x_12 * x_4 + 3.0 x_12 * x_9 - 18.5 x_12 * x_13 - 24.0 x_12 * x_14 + 8.0 x_12 * x_20 - 6.5 x_12 * x_31 + 8.0 x_12 * x_34 - 1.0 x_12 * x_41 - 8.0 x_12 * x_50 + 3.0 x_12 * x_56 - 22.5 x_13 * x_4 - 18.5 x_13 * x_12 - 1.0 x_13 * x_23 + 11.5 x_13 * x_29 + 21.0 x_13 * x_33 - 6.0 x_13 * x_37 + 8.0 x_13 * x_38 + 4.0 x_13 * x_39 + 5.0 x_13 * x_40 - 9.5 x_13 * x_52 - 8.0 x_13 * x_53 - 20.5 x_14 * x_2 + 18.5 x_14 * x_5 - 24.0 x_14 * x_12 + 1.0 x_14 * x_17 - 5.5 x_14 * x_18 + 5.0 x_14 * x_19 + 12.0 x_14 * x_21 + 5.0 x_14 * x_22 - 16.0 x_14 * x_24 - 17.5 x_14 * x_26 - 4.0 x_14 * x_29 - 15.5 x_14 * x_31 - 19.5 x_14 * x_32 - 22.5 x_14 * x_37 - 10.5 x_14 * x_47 - 21.0 x_14 * x_51 + 12.5 x_14 * x_53 + 24.0 x_14 * x_55 + 4.0 x_14 * x_56 + 18.5 x_15 * x_3 + 15.5 x_15 * x_5 + 18.5 x_15 * x_11 + 9.0 x_15 * x_17 - 4.0 x_15 * x_21 - 13.0 x_15 * x_24 + 20.0 x_15 * x_46 + 21.0 x_15 * x_51 + 8.5 x_15 * x_57 + 9.0 x_16 * x_8 + 22.5 x_16 * x_10 - 12.0 x_16 * x_16 + 15.5 x_16 * x_18 - 12.5 x_16 * x_23 + 18.0 x_16 * x_25 + 23.5 x_16 * x_26 - 23.5 x_16 * x_28 - 13.0 x_16 * x_43 - 3.0 x_16 * x_44 + 8.0 x_16 * x_46 + 15.5 x_16 * x_49 + 13.0 x_16 * x_53 - 7.5 x_16 * x_55 + 5.0 x_16 * x_56 + 17.0 x_17 * x_1 - 17.5 x_17 * x_6 - 10.0 x_17 * x_8 + 1.0 x_17 * x_14 + 9.0 x_17 * x_15 + 18.0 x_17 * x_21 + 16.0 x_17 * x_22 + 19.5 x_17 * x_23 - 17.0 x_17 * x_40 - 18.0 x_17 * x_48 - 3.0 x_17 * x_57 + 5.0 x_17 * x_59 + 4.0 x_18 * x_3 + 11.0 x_18 * x_11 - 5.5 x_18 * x_14 + 15.5 x_18 * x_16 + 12.0 x_18 * x_18 + 17.5 x_18 * x_23 - 17.5 x_18 * x_24 + 10.5 x_18 * x_28 - 10.0 x_18 * x_42 + 24.5 x_18 * x_49 - 22.5 x_18 * x_54 + 23.0 x_18 * x_57 + 6.0 x_19 * x_10 + 5.0 x_19 * x_14 + 23.5 x_19 * x_22 + 22.0 x_19 * x_23 + 15.0 x_19 * x_24 - 5.5 x_19 * x_30 - 17.0 x_19 * x_34 - 6.5 x_19 * x_35 - 19.5 x_19 * x_36 - 2.5 x_19 * x_40 + 5.0 x_19 * x_51 + 10.5 x_19 * x_55 - 12.5 x_19 * x_57 + 21.5 x_19 * x_58 + 20.5 x_20 * x_2 + 20.5 x_20 * x_5 + 10.0 x_20 * x_7 - 4.0 x_20 * x_11 + 8.0 x_20 * x_12 + 16.5 x_20 * x_21 - 19.0 x_20 * x_28 + 7.5 x_20 * x_38 + 16.5 x_20 * x_39 + 21.0 x_20 * x_45 - 19.0 x_20 * x_47 - 7.0 x_20 * x_49 - 5.0 x_20 * x_51 - 18.5 x_20 * x_54 - 18.0 x_20 * x_58 + 3.0 x_21 * x_1 + 18.0 x_21 * x_3 + 0.5 x_21 * x_11 + 12.0 x_21 * x_14 - 4.0 x_21 * x_15 + 18.0 x_21 * x_17 + 16.5 x_21 * x_20 - 3.5 x_21 * x_21 + 6.5 x_21 * x_23 - 22.0 x_21 * x_30 + 6.0 x_21 * x_41 + 1.5 x_21 * x_49 + 11.0 x_22 * x_3 - 21.5 x_22 * x_4 + 5.0 x_22 * x_14 + 16.0 x_22 * x_17 + 23.5 x_22 * x_19 + 23.5 x_22 * x_28 + 23.5 x_22 * x_41 - 9.0 x_22 * x_42 - 15.0 x_22 * x_43 + 0.5 x_22 * x_47 + 4.0 x_22 * x_48 + 23.5 x_22 * x_49 - 13.5 x_22 * x_50 - 13.0 x_22 * x_58 + 10.5 x_22 * x_59 + 24.5 x_22 * x_60 + 13.0 x_23 * x_5 - 1.0 x_23 * x_13 - 12.5 x_23 * x_16 + 19.5 x_23 * x_17 + 17.5 x_23 * x_18 + 22.0 x_23 * x_19 + 6.5 x_23 * x_21 + 17.0 x_23 * x_33 + 8.5 x_23 * x_39 - 6.0 x_23 * x_40 - 22.5 x_23 * x_41 - 7.0 x_23 * x_42 + 22.0 x_23 * x_44 + 16.5 x_23 * x_45 - 16.0 x_24 * x_14 - 13.0 x_24 * x_15 - 17.5 x_24 * x_18 + 15.0 x_24 * x_19 + 5.0 x_24 * x_34 - 11.5 x_24 * x_36 + 18.5 x_24 * x_39 + 19.5 x_24 * x_48 + 21.5 x_24 * x_51 + 16.5 x_24 * x_53 - 9.0 x_24 * x_55 - 20.0 x_24 * x_60 - 21.5 x_25 * x_1 - 9.0 x_25 * x_5 - 18.5 x_25 * x_6 + 18.0 x_25 * x_16 + 20.0 x_25 * x_27 + 5.5 x_25 * x_39 - 3.0 x_25 * x_40 - 22.0 x_25 * x_41 + 15.5 x_26 * x_4 + 23.5 x_26 * x_8 - 14.0 x_26 * x_9 - 17.5 x_26 * x_14 + 23.5 x_26 * x_16 + 11.5 x_26 * x_26 - 18.5 x_26 * x_48 + 8.5 x_26 * x_54 + 12.5 x_27 * x_3 - 9.0 x_27 * x_9 + 15.5 x_27 * x_10 + 20.0 x_27 * x_25 - 23.5 x_27 * x_32 + 5.0 x_27 * x_42 + 21.5 x_27 * x_43 + 15.0 x_27 * x_47 - 3.0 x_27 * x_49 + 4.5 x_27 * x_50 + 17.0 x_27 * x_60 - 23.5 x_28 * x_16 + 10.5 x_28 * x_18 - 19.0 x_28 * x_20 + 23.5 x_28 * x_22 - 9.5 x_28 * x_28 + 19.0 x_28 * x_35 - 1.0 x_28 * x_37 + 13.5 x_28 * x_38 + 14.0 x_28 * x_39 - 5.5 x_28 * x_51 + 15.0 x_28 * x_52 - 19.0 x_28 * x_53 - 9.5 x_28 * x_59 + 3.0 x_28 * x_60 + 13.0 x_29 * x_2 + 24.5 x_29 * x_5 + 17.5 x_29 * x_8 + 11.5 x_29 * x_13 - 4.0 x_29 * x_14 - 11.0 x_29 * x_33 - 4.5 x_29 * x_35 + 11.0 x_29 * x_46 + 15.0 x_29 * x_48 - 22.0 x_29 * x_50 + 10.5 x_29 * x_54 - 3.0 x_29 * x_56 - 4.5 x_30 * x_6 - 2.5 x_30 * x_10 - 5.5 x_30 * x_19 - 22.0 x_30 * x_21 + 6.0 x_30 * x_32 + 19.5 x_30 * x_34 + 16.5 x_30 * x_40 + 5.0 x_30 * x_44 + 3.0 x_30 * x_46 + 13.0 x_30 * x_54 + 10.0 x_31 * x_2 + 12.5 x_31 * x_3 - 23.5 x_31 * x_6 - 6.5 x_31 * x_12 - 15.5 x_31 * x_14 - 5.0 x_31 * x_51 - 18.5 x_31 * x_53 + 6.0 x_31 * x_54 - 22.0 x_32 * x_3 + 13.0 x_32 * x_5 + 23.5 x_32 * x_6 - 19.5 x_32 * x_14 - 23.5 x_32 * x_27 + 6.0 x_32 * x_30 + 11.5 x_32 * x_33 + 7.5 x_32 * x_35 + 22.0 x_32 * x_42 - 12.5 x_32 * x_50 - 11.5 x_32 * x_55 + 21.5 x_33 * x_1 - 7.5 x_33 * x_7 + 21.0 x_33 * x_13 + 17.0 x_33 * x_23 - 11.0 x_33 * x_29 + 11.5 x_33 * x_32 + 13.0 x_33 * x_37 - 7.0 x_33 * x_50 - 17.5 x_33 * x_53 + 8.0 x_33 * x_54 - 9.0 x_33 * x_55 - 22.0 x_33 * x_58 + 16.0 x_34 * x_8 - 4.5 x_34 * x_9 + 8.0 x_34 * x_12 - 17.0 x_34 * x_19 + 5.0 x_34 * x_24 + 19.5 x_34 * x_30 - 20.5 x_34 * x_41 + 8.5 x_34 * x_46 + 2.5 x_34 * x_49 + 22.0 x_34 * x_60 + 4.0 x_35 * x_2 - 4.0 x_35 * x_4 + 17.0 x_35 * x_6 + 13.0 x_35 * x_8 - 6.5 x_35 * x_19 + 19.0 x_35 * x_28 - 4.5 x_35 * x_29 + 7.5 x_35 * x_32 + 24.0 x_35 * x_39 - 2.5 x_35 * x_44 - 4.5 x_35 * x_50 + 24.0 x_35 * x_57 + 23.0 x_36 * x_5 + 2.5 x_36 * x_7 - 19.5 x_36 * x_19 - 11.5 x_36 * x_24 + 1.0 x_36 * x_39 - 7.5 x_36 * x_48 - 22.0 x_36 * x_50 + 15.5 x_36 * x_52 + 22.5 x_37 * x_3 - 2.5 x_37 * x_7 - 6.0 x_37 * x_13 - 22.5 x_37 * x_14 - 1.0 x_37 * x_28 + 13.0 x_37 * x_33 - 13.0 x_37 * x_39 + 15.0 x_37 * x_45 + 20.0 x_37 * x_47 - 24.5 x_37 * x_51 + 3.5 x_37 * x_56 - 17.0 x_37 * x_59 + 8.0 x_38 * x_13 + 7.5 x_38 * x_20 + 13.5 x_38 * x_28 + 19.0 x_38 * x_44 + 20.0 x_38 * x_45 - 7.5 x_38 * x_49 - 3.5 x_38 * x_51 + 17.0 x_39 * x_3 + 4.0 x_39 * x_13 + 16.5 x_39 * x_20 + 8.5 x_39 * x_23 + 18.5 x_39 * x_24 + 5.5 x_39 * x_25 + 14.0 x_39 * x_28 + 24.0 x_39 * x_35 + 1.0 x_39 * x_36 - 13.0 x_39 * x_37 - 14.0 x_39 * x_42 + 6.0 x_39 * x_45 - 14.5 x_39 * x_54 - 19.5 x_39 * x_58 + 23.0 x_40 * x_6 + 9.0 x_40 * x_10 + 5.0 x_40 * x_13 - 17.0 x_40 * x_17 - 2.5 x_40 * x_19 - 6.0 x_40 * x_23 - 3.0 x_40 * x_25 + 16.5 x_40 * x_30 - 4.5 x_40 * x_48 + 17.0 x_40 * x_50 + 10.0 x_40 * x_52 + 16.0 x_40 * x_55 - 20.5 x_40 * x_57 + 17.0 x_40 * x_60 - 17.0 x_41 * x_4 + 7.0 x_41 * x_11 - 1.0 x_41 * x_12 + 6.0 x_41 * x_21 + 23.5 x_41 * x_22 - 22.5 x_41 * x_23 - 22.0 x_41 * x_25 - 20.5 x_41 * x_34 - 17.5 x_41 * x_44 + 9.0 x_41 * x_49 + 23.5 x_41 * x_56 - 22.0 x_42 * x_2 + 17.5 x_42 * x_3 + 24.0 x_42 * x_8 - 4.5 x_42 * x_11 - 10.0 x_42 * x_18 - 9.0 x_42 * x_22 - 7.0 x_42 * x_23 + 5.0 x_42 * x_27 + 22.0 x_42 * x_32 - 14.0 x_42 * x_39 + 22.5 x_42 * x_48 + 4.0 x_42 * x_51 - 13.0 x_43 * x_16 - 15.0 x_43 * x_22 + 21.5 x_43 * x_27 + 24.5 x_43 * x_54 + 1.5 x_43 * x_55 - 9.0 x_43 * x_56 - 15.5 x_43 * x_57 + 17.0 x_44 * x_8 - 3.0 x_44 * x_16 + 22.0 x_44 * x_23 + 5.0 x_44 * x_30 - 2.5 x_44 * x_35 + 19.0 x_44 * x_38 - 17.5 x_44 * x_41 + 8.0 x_44 * x_47 + 8.5 x_44 * x_55 + 18.0 x_44 * x_56 + 14.5 x_45 * x_3 + 10.5 x_45 * x_9 + 21.0 x_45 * x_20 + 16.5 x_45 * x_23 + 15.0 x_45 * x_37 + 20.0 x_45 * x_38 + 6.0 x_45 * x_39 + 8.5 x_45 * x_48 + 23.0 x_45 * x_53 - 2.5 x_45 * x_55 + 23.5 x_45 * x_58 - 24.0 x_45 * x_59 + 19.5 x_45 * x_60 + 14.5 x_46 * x_3 - 20.0 x_46 * x_6 + 8.5 x_46 * x_11 + 20.0 x_46 * x_15 + 8.0 x_46 * x_16 + 11.0 x_46 * x_29 + 3.0 x_46 * x_30 + 8.5 x_46 * x_34 + 23.5 x_46 * x_47 - 21.5 x_46 * x_52 + 3.0 x_46 * x_60 - 23.0 x_47 * x_7 + 6.5 x_47 * x_8 - 10.5 x_47 * x_14 - 19.0 x_47 * x_20 + 0.5 x_47 * x_22 + 15.0 x_47 * x_27 + 20.0 x_47 * x_37 + 8.0 x_47 * x_44 + 23.5 x_47 * x_46 - 2.5 x_47 * x_57 - 11.5 x_47 * x_58 + 20.0 x_48 * x_3 - 18.0 x_48 * x_17 + 4.0 x_48 * x_22 + 19.5 x_48 * x_24 - 18.5 x_48 * x_26 + 15.0 x_48 * x_29 - 7.5 x_48 * x_36 - 4.5 x_48 * x_40 + 22.5 x_48 * x_42 + 8.5 x_48 * x_45 - 8.5 x_48 * x_56 - 10.0 x_48 * x_58 + 15.5 x_48 * x_59 + 15.5 x_49 * x_16 + 24.5 x_49 * x_18 - 7.0 x_49 * x_20 + 1.5 x_49 * x_21 + 23.5 x_49 * x_22 - 3.0 x_49 * x_27 + 2.5 x_49 * x_34 - 7.5 x_49 * x_38 + 9.0 x_49 * x_41 - 18.5 x_49 * x_58 + 14.5 x_50 * x_5 + 4.5 x_50 * x_9 - 8.0 x_50 * x_12 - 13.5 x_50 * x_22 + 4.5 x_50 * x_27 - 22.0 x_50 * x_29 - 12.5 x_50 * x_32 - 7.0 x_50 * x_33 - 4.5 x_50 * x_35 - 22.0 x_50 * x_36 + 17.0 x_50 * x_40 - 5.0 x_50 * x_50 + 13.0 x_51 * x_1 + 16.5 x_51 * x_3 - 21.0 x_51 * x_14 + 21.0 x_51 * x_15 + 5.0 x_51 * x_19 - 5.0 x_51 * x_20 + 21.5 x_51 * x_24 - 5.5 x_51 * x_28 - 5.0 x_51 * x_31 - 24.5 x_51 * x_37 - 3.5 x_51 * x_38 + 4.0 x_51 * x_42 - 23.0 x_51 * x_53 + 1.5 x_51 * x_58 - 13.5 x_51 * x_60 + 23.5 x_52 * x_1 + 22.5 x_52 * x_10 - 9.5 x_52 * x_13 + 15.0 x_52 * x_28 + 15.5 x_52 * x_36 + 10.0 x_52 * x_40 - 21.5 x_52 * x_46 + 6.5 x_53 * x_3 - 8.0 x_53 * x_13 + 12.5 x_53 * x_14 + 13.0 x_53 * x_16 + 16.5 x_53 * x_24 - 19.0 x_53 * x_28 - 18.5 x_53 * x_31 - 17.5 x_53 * x_33 + 23.0 x_53 * x_45 - 23.0 x_53 * x_51 + 1.5 x_53 * x_57 - 1.5 x_53 * x_58 + 13.0 x_53 * x_59 + 16.0 x_54 * x_2 - 22.5 x_54 * x_18 - 18.5 x_54 * x_20 + 8.5 x_54 * x_26 + 10.5 x_54 * x_29 + 13.0 x_54 * x_30 + 6.0 x_54 * x_31 + 8.0 x_54 * x_33 - 14.5 x_54 * x_39 + 24.5 x_54 * x_43 - 4.0 x_54 * x_56 - 9.5 x_54 * x_57 + 7.5 x_55 * x_1 + 22.5 x_55 * x_7 + 24.0 x_55 * x_14 - 7.5 x_55 * x_16 + 10.5 x_55 * x_19 - 9.0 x_55 * x_24 - 11.5 x_55 * x_32 - 9.0 x_55 * x_33 + 16.0 x_55 * x_40 + 1.5 x_55 * x_43 + 8.5 x_55 * x_44 - 2.5 x_55 * x_45 - 12.5 x_55 * x_55 - 24.0 x_56 * x_2 + 3.0 x_56 * x_12 + 4.0 x_56 * x_14 + 5.0 x_56 * x_16 - 3.0 x_56 * x_29 + 3.5 x_56 * x_37 + 23.5 x_56 * x_41 - 9.0 x_56 * x_43 + 18.0 x_56 * x_44 - 8.5 x_56 * x_48 - 4.0 x_56 * x_54 + 23.5 x_56 * x_56 + 24.5 x_56 * x_57 + 19.5 x_57 * x_9 + 19.0 x_57 * x_11 + 8.5 x_57 * x_15 - 3.0 x_57 * x_17 + 23.0 x_57 * x_18 - 12.5 x_57 * x_19 + 24.0 x_57 * x_35 - 20.5 x_57 * x_40 - 15.5 x_57 * x_43 - 2.5 x_57 * x_47 + 1.5 x_57 * x_53 - 9.5 x_57 * x_54 + 24.5 x_57 * x_56 + 6.0 x_57 * x_58 - 1.5 x_58 * x_3 + 3.5 x_58 * x_4 + 21.5 x_58 * x_19 - 18.0 x_58 * x_20 - 13.0 x_58 * x_22 - 22.0 x_58 * x_33 - 19.5 x_58 * x_39 + 23.5 x_58 * x_45 - 11.5 x_58 * x_47 - 10.0 x_58 * x_48 - 18.5 x_58 * x_49 + 1.5 x_58 * x_51 - 1.5 x_58 * x_53 + 6.0 x_58 * x_57 - 19.0 x_59 * x_4 + 4.0 x_59 * x_9 - 4.0 x_59 * x_11 + 5.0 x_59 * x_17 + 10.5 x_59 * x_22 - 9.5 x_59 * x_28 - 17.0 x_59 * x_37 - 24.0 x_59 * x_45 + 15.5 x_59 * x_48 + 13.0 x_59 * x_53 + 8.5 x_60 * x_1 + 22.5 x_60 * x_2 + 18.5 x_60 * x_7 + 21.5 x_60 * x_11 + 24.5 x_60 * x_22 - 20.0 x_60 * x_24 + 17.0 x_60 * x_27 + 3.0 x_60 * x_28 + 22.0 x_60 * x_34 + 17.0 x_60 * x_40 + 19.5 x_60 * x_45 + 3.0 x_60 * x_46 - 13.5 x_60 * x_51 ] + 0.0 x_1 + 15.0 x_2 + 0.0 x_3 - 19.0 x_4 + 0.0 x_5 + 17.0 x_6 + 0.0 x_7 + 0.0 x_8 + 0.0 x_9 + 0.0 x_10 + 0.0 x_11 + 0.0 x_12 + 0.0 x_13 + 0.0 x_14 + 0.0 x_15 + 11.0 x_16 + 0.0 x_17 + 0.0 x_18 + 0.0 x_19 + 0.0 x_20 + 0.0 x_21 + 0.0 x_22 + 0.0 x_23 + 0.0 x_24 + 0.0 x_25 + 0.0 x_26 + 0.0 x_27 + 0.0 x_28 + 0.0 x_29 + 0.0 x_30 + 0.0 x_31 + 0.0 x_32 + 0.0 x_33 + 0.0 x_34 + 0.0 x_35 + 6.0 x_36 + 0.0 x_37 + 0.0 x_38 + 0.0 x_39 + 0.0 x_40 + 0.0 x_41 - 3.0 x_42 + 0.0 x_43 + 0.0 x_44 + 7.0 x_45 + 33.0 x_46 + 0.0 x_47 - 9.0 x_48 + 0.0 x_49 + 0.0 x_50 + 0.0 x_51 + 0.0 x_52 + 0.0 x_53 + 0.0 x_54 + 0.0 x_55 + 0.0 x_56 - 16.0 x_57 + 0.0 x_58 - 43.0 x_59 + 0.0 x_60

Subject To
 e2: [  x_1 * x_17 ] = 0.0
 e3: [  x_1 * x_21 ] = 0.0
 e4: [  x_1 * x_25 ] = 0.0
 e5: [  x_1 * x_51 ] = 0.0
 e6: [  x_2 * x_42 ] = 0.0
 e7: [  x_2 * x_54 ] = 0.0
 e8: [  x_2 * x_56 ] = 0.0
 e9: [  x_3 * x_15 ] = 0.0
 e10: [  x_3 * x_21 ] = 0.0
 e11: [  x_3 * x_39 ] = 0.0
 e12: [  x_3 * x_42 ] = 0.0
 e13: [  x_3 * x_48 ] = 0.0
 e14: [  x_3 * x_53 ] = 0.0
 e15: [  x_3 * x_58 ] = 0.0
 e16: [  x_4 * x_13 ] = 0.0
 e17: [  x_4 * x_26 ] = 0.0
 e18: [  x_4 * x_35 ] = 0.0
 e19: [  x_4 * x_58 ] = 0.0
 e20: [  x_4 * x_59 ] = 0.0
 e21: [  x_5 * x_23 ] = 0.0
 e22: [  x_5 * x_25 ] = 0.0
 e23: [  x_5 * x_36 ] = 0.0
 e24: [  x_6 * x_17 ] = 0.0
 e25: [  x_6 * x_31 ] = 0.0
 e26: [  x_6 * x_46 ] = 0.0
 e27: [  x_7 * x_5 ] = 0.0
 e28: [  x_7 * x_9 ] = 0.0
 e29: [  x_7 * x_33 ] = 0.0
 e30: [  x_7 * x_36 ] = 0.0
 e31: [  x_7 * x_47 ] = 0.0
 e32: [  x_8 * x_16 ] = 0.0
 e33: [  x_8 * x_17 ] = 0.0
 e34: [  x_8 * x_26 ] = 0.0
 e35: [  x_8 * x_29 ] = 0.0
 e36: [  x_8 * x_42 ] = 0.0
 e37: [  x_8 * x_44 ] = 0.0
 e38: [  x_8 * x_47 ] = 0.0
 e39: [  x_9 * x_4 ] = 0.0
 e40: [  x_9 * x_7 ] = 0.0
 e41: [  x_9 * x_10 ] = 0.0
 e42: [  x_9 * x_27 ] = 0.0
 e43: [  x_9 * x_34 ] = 0.0
 e44: [  x_9 * x_45 ] = 0.0
 e45: [  x_9 * x_59 ] = 0.0
 e46: [  x_11 * x_15 ] = 0.0
 e47: [  x_11 * x_18 ] = 0.0
 e48: [  x_11 * x_46 ] = 0.0
 e49: [  x_12 * x_14 ] = 0.0
 e50: [  x_12 * x_20 ] = 0.0
 e51: [  x_12 * x_34 ] = 0.0
 e52: [  x_12 * x_50 ] = 0.0
 e53: [  x_13 * x_12 ] = 0.0
 e54: [  x_13 * x_23 ] = 0.0
 e55: [  x_13 * x_33 ] = 0.0
 e56: [  x_13 * x_38 ] = 0.0
 e57: [  x_14 * x_12 ] = 0.0
 e58: [  x_14 * x_19 ] = 0.0
 e59: [  x_14 * x_21 ] = 0.0
 e60: [  x_14 * x_37 ] = 0.0
 e61: [  x_14 * x_56 ] = 0.0
 e62: [  x_15 * x_5 ] = 0.0
 e63: [  x_15 * x_11 ] = 0.0
 e64: [  x_15 * x_24 ] = 0.0
 e65: [  x_15 * x_46 ] = 0.0
 e66: [  x_15 * x_57 ] = 0.0
 e67: [  x_16 * x_8 ] = 0.0
 e68: [  x_16 * x_16 ] = 0.0
 e69: [  x_16 * x_25 ] = 0.0
 e70: [  x_16 * x_26 ] = 0.0
 e71: [  x_16 * x_55 ] = 0.0
 e72: [  x_16 * x_56 ] = 0.0
 e73: [  x_17 * x_8 ] = 0.0
 e74: [  x_17 * x_22 ] = 0.0
 e75: [  x_17 * x_23 ] = 0.0
 e76: [  x_17 * x_59 ] = 0.0
 e77: [  x_18 * x_14 ] = 0.0
 e78: [  x_18 * x_16 ] = 0.0
 e79: [  x_18 * x_23 ] = 0.0
 e80: [  x_18 * x_24 ] = 0.0
 e81: [  x_18 * x_42 ] = 0.0
 e82: [  x_19 * x_10 ] = 0.0
 e83: [  x_19 * x_23 ] = 0.0
 e84: [  x_19 * x_34 ] = 0.0
 e85: [  x_19 * x_35 ] = 0.0
 e86: [  x_19 * x_40 ] = 0.0
 e87: [  x_19 * x_57 ] = 0.0
 e88: [  x_19 * x_58 ] = 0.0
 e89: [  x_20 * x_2 ] = 0.0
 e90: [  x_20 * x_12 ] = 0.0
 e91: [  x_20 * x_21 ] = 0.0
 e92: [  x_20 * x_39 ] = 0.0
 e93: [  x_20 * x_45 ] = 0.0
 e94: [  x_20 * x_47 ] = 0.0
 e95: [  x_21 * x_3 ] = 0.0
 e96: [  x_21 * x_11 ] = 0.0
 e97: [  x_21 * x_30 ] = 0.0
 e98: [  x_22 * x_14 ] = 0.0
 e99: [  x_22 * x_28 ] = 0.0
 e100: [  x_22 * x_49 ] = 0.0
 e101: [  x_23 * x_39 ] = 0.0
 e102: [  x_23 * x_40 ] = 0.0
 e103: [  x_23 * x_41 ] = 0.0
 e104: [  x_23 * x_42 ] = 0.0
 e105: [  x_24 * x_15 ] = 0.0
 e106: [  x_24 * x_19 ] = 0.0
 e107: [  x_24 * x_55 ] = 0.0
 e108: [  x_24 * x_60 ] = 0.0
 e109: [  x_25 * x_6 ] = 0.0
 e110: [  x_25 * x_27 ] = 0.0
 e111: [  x_26 * x_4 ] = 0.0
 e112: [  x_26 * x_8 ] = 0.0
 e113: [  x_26 * x_9 ] = 0.0
 e114: [  x_26 * x_16 ] = 0.0
 e115: [  x_27 * x_3 ] = 0.0
 e116: [  x_27 * x_9 ] = 0.0
 e117: [  x_27 * x_10 ] = 0.0
 e118: [  x_27 * x_25 ] = 0.0
 e119: [  x_27 * x_32 ] = 0.0
 e120: [  x_27 * x_42 ] = 0.0
 e121: [  x_27 * x_60 ] = 0.0
 e122: [  x_28 * x_18 ] = 0.0
 e123: [  x_28 * x_35 ] = 0.0
 e124: [  x_28 * x_51 ] = 0.0
 e125: [  x_28 * x_53 ] = 0.0
 e126: [  x_28 * x_59 ] = 0.0
 e127: [  x_28 * x_60 ] = 0.0
 e128: [  x_29 * x_13 ] = 0.0
 e129: [  x_29 * x_14 ] = 0.0
 e130: [  x_29 * x_33 ] = 0.0
 e131: [  x_29 * x_46 ] = 0.0
 e132: [  x_29 * x_48 ] = 0.0
 e133: [  x_29 * x_50 ] = 0.0
 e134: [  x_30 * x_32 ] = 0.0
 e135: [  x_30 * x_40 ] = 0.0
 e136: [  x_30 * x_44 ] = 0.0
 e137: [  x_31 * x_6 ] = 0.0
 e138: [  x_31 * x_12 ] = 0.0
 e139: [  x_31 * x_14 ] = 0.0
 e140: [  x_32 * x_3 ] = 0.0
 e141: [  x_32 * x_33 ] = 0.0
 e142: [  x_32 * x_50 ] = 0.0
 e143: [  x_33 * x_13 ] = 0.0
 e144: [  x_33 * x_32 ] = 0.0
 e145: [  x_33 * x_37 ] = 0.0
 e146: [  x_33 * x_50 ] = 0.0
 e147: [  x_33 * x_54 ] = 0.0
 e148: [  x_33 * x_55 ] = 0.0
 e149: [  x_33 * x_58 ] = 0.0
 e150: [  x_34 * x_9 ] = 0.0
 e151: [  x_34 * x_12 ] = 0.0
 e152: [  x_34 * x_19 ] = 0.0
 e153: [  x_34 * x_24 ] = 0.0
 e154: [  x_35 * x_19 ] = 0.0
 e155: [  x_35 * x_28 ] = 0.0
 e156: [  x_35 * x_29 ] = 0.0
 e157: [  x_35 * x_32 ] = 0.0
 e158: [  x_35 * x_44 ] = 0.0
 e159: [  x_35 * x_57 ] = 0.0
 e160: [  x_36 * x_7 ] = 0.0
 e161: [  x_36 * x_24 ] = 0.0
 e162: [  x_36 * x_48 ] = 0.0
 e163: [  x_36 * x_52 ] = 0.0
 e164: [  x_37 * x_7 ] = 0.0
 e165: [  x_37 * x_45 ] = 0.0
 e166: [  x_37 * x_56 ] = 0.0
 e167: [  x_37 * x_59 ] = 0.0
 e168: [  x_38 * x_13 ] = 0.0
 e169: [  x_38 * x_44 ] = 0.0
 e170: [  x_39 * x_23 ] = 0.0
 e171: [  x_39 * x_28 ] = 0.0
 e172: [  x_39 * x_36 ] = 0.0
 e173: [  x_39 * x_37 ] = 0.0
 e174: [  x_39 * x_54 ] = 0.0
 e175: [  x_40 * x_6 ] = 0.0
 e176: [  x_40 * x_17 ] = 0.0
 e177: [  x_40 * x_30 ] = 0.0
 e178: [  x_40 * x_50 ] = 0.0
 e179: [  x_40 * x_52 ] = 0.0
 e180: [  x_40 * x_57 ] = 0.0
 e181: [  x_40 * x_60 ] = 0.0
 e182: [  x_41 * x_11 ] = 0.0
 e183: [  x_41 * x_21 ] = 0.0
 e184: [  x_41 * x_23 ] = 0.0
 e185: [  x_41 * x_25 ] = 0.0
 e186: [  x_41 * x_56 ] = 0.0
 e187: [  x_42 * x_2 ] = 0.0
 e188: [  x_42 * x_3 ] = 0.0
 e189: [  x_42 * x_22 ] = 0.0
 e190: [  x_42 * x_23 ] = 0.0
 e191: [  x_42 * x_27 ] = 0.0
 e192: [  x_42 * x_39 ] = 0.0
 e193: [  x_42 * x_51 ] = 0.0
 e194: [  x_43 * x_27 ] = 0.0
 e195: [  x_44 * x_16 ] = 0.0
 e196: [  x_44 * x_23 ] = 0.0
 e197: [  x_44 * x_55 ] = 0.0
 e198: [  x_44 * x_56 ] = 0.0
 e199: [  x_45 * x_20 ] = 0.0
 e200: [  x_45 * x_38 ] = 0.0
 e201: [  x_45 * x_53 ] = 0.0
 e202: [  x_45 * x_55 ] = 0.0
 e203: [  x_45 * x_59 ] = 0.0
 e204: [  x_46 * x_3 ] = 0.0
 e205: [  x_46 * x_11 ] = 0.0
 e206: [  x_46 * x_16 ] = 0.0
 e207: [  x_46 * x_30 ] = 0.0
 e208: [  x_46 * x_60 ] = 0.0
 e209: [  x_47 * x_8 ] = 0.0
 e210: [  x_47 * x_14 ] = 0.0
 e211: [  x_47 * x_27 ] = 0.0
 e212: [  x_48 * x_3 ] = 0.0
 e213: [  x_48 * x_22 ] = 0.0
 e214: [  x_48 * x_36 ] = 0.0
 e215: [  x_48 * x_42 ] = 0.0
 e216: [  x_48 * x_56 ] = 0.0
 e217: [  x_48 * x_58 ] = 0.0
 e218: [  x_49 * x_16 ] = 0.0
 e219: [  x_49 * x_18 ] = 0.0
 e220: [  x_49 * x_21 ] = 0.0
 e221: [  x_49 * x_22 ] = 0.0
 e222: [  x_49 * x_27 ] = 0.0
 e223: [  x_49 * x_38 ] = 0.0
 e224: [  x_50 * x_27 ] = 0.0
 e225: [  x_50 * x_35 ] = 0.0
 e226: [  x_51 * x_3 ] = 0.0
 e227: [  x_51 * x_19 ] = 0.0
 e228: [  x_51 * x_20 ] = 0.0
 e229: [  x_51 * x_24 ] = 0.0
 e230: [  x_51 * x_31 ] = 0.0
 e231: [  x_51 * x_53 ] = 0.0
 e232: [  x_51 * x_60 ] = 0.0
 e233: [  x_52 * x_36 ] = 0.0
 e234: [  x_52 * x_46 ] = 0.0
 e235: [  x_53 * x_16 ] = 0.0
 e236: [  x_53 * x_24 ] = 0.0
 e237: [  x_53 * x_33 ] = 0.0
 e238: [  x_53 * x_57 ] = 0.0
 e239: [  x_54 * x_18 ] = 0.0
 e240: [  x_54 * x_29 ] = 0.0
 e241: [  x_54 * x_33 ] = 0.0
 e242: [  x_54 * x_56 ] = 0.0
 e243: [  x_55 * x_7 ] = 0.0
 e244: [  x_55 * x_19 ] = 0.0
 e245: [  x_55 * x_32 ] = 0.0
 e246: [  x_55 * x_33 ] = 0.0
 e247: [  x_55 * x_40 ] = 0.0
 e248: [  x_55 * x_44 ] = 0.0
 e249: [  x_56 * x_14 ] = 0.0
 e250: [  x_56 * x_29 ] = 0.0
 e251: [  x_56 * x_37 ] = 0.0
 e252: [  x_56 * x_43 ] = 0.0
 e253: [  x_57 * x_11 ] = 0.0
 e254: [  x_57 * x_17 ] = 0.0
 e255: [  x_57 * x_35 ] = 0.0
 e256: [  x_57 * x_54 ] = 0.0
 e257: [  x_57 * x_56 ] = 0.0
 e258: [  x_58 * x_3 ] = 0.0
 e259: [  x_58 * x_49 ] = 0.0
 e260: [  x_58 * x_51 ] = 0.0
 e261: [  x_58 * x_57 ] = 0.0
 e262: [  x_59 * x_9 ] = 0.0
 e263: [  x_59 * x_11 ] = 0.0
 e264: [  x_59 * x_17 ] = 0.0
 e265: [  x_59 * x_37 ] = 0.0
 e266: [  x_59 * x_45 ] = 0.0
 e267: [  x_59 * x_48 ] = 0.0
 e268: [  x_59 * x_53 ] = 0.0
 e269: [  x_60 * x_2 ] = 0.0
 e270: [  x_60 * x_7 ] = 0.0
 e271: [  x_60 * x_27 ] = 0.0
 e272: [  x_60 * x_28 ] = 0.0
 e273: [  x_60 * x_40 ] = 0.0
 e274: [  x_60 * x_45 ] = 0.0

Bounds
 x_1 <= 1.0
 x_2 <= 1.0
 x_3 <= 1.0
 x_4 <= 1.0
 x_5 <= 1.0
 x_6 <= 1.0
 x_7 <= 1.0
 x_8 <= 1.0
 x_9 <= 1.0
 x_10 <= 1.0
 x_11 <= 1.0
 x_12 <= 1.0
 x_13 <= 1.0
 x_14 <= 1.0
 x_15 <= 1.0
 x_16 <= 1.0
 x_17 <= 1.0
 x_18 <= 1.0
 x_19 <= 1.0
 x_20 <= 1.0
 x_21 <= 1.0
 x_22 <= 1.0
 x_23 <= 1.0
 x_24 <= 1.0
 x_25 <= 1.0
 x_26 <= 1.0
 x_27 <= 1.0
 x_28 <= 1.0
 x_29 <= 1.0
 x_30 <= 1.0
 x_31 <= 1.0
 x_32 <= 1.0
 x_33 <= 1.0
 x_34 <= 1.0
 x_35 <= 1.0
 x_36 <= 1.0
 x_37 <= 1.0
 x_38 <= 1.0
 x_39 <= 1.0
 x_40 <= 1.0
 x_41 <= 1.0
 x_42 <= 1.0
 x_43 <= 1.0
 x_44 <= 1.0
 x_45 <= 1.0
 x_46 <= 1.0
 x_47 <= 1.0
 x_48 <= 1.0
 x_49 <= 1.0
 x_50 <= 1.0
 x_51 <= 1.0
 x_52 <= 1.0
 x_53 <= 1.0
 x_54 <= 1.0
 x_55 <= 1.0
 x_56 <= 1.0
 x_57 <= 1.0
 x_58 <= 1.0
 x_59 <= 1.0
 x_60 <= 1.0

End